c solution = True
p edge 362 361
e 2 1 1
e 3 2 1
e 5 2 1
e 7 2 1
e 9 2 1
e 11 2 1
e 13 2 1
e 15 2 1
e 17 2 1
e 19 2 1
e 21 2 1
e 23 2 1
e 25 2 1
e 27 2 1
e 29 2 1
e 31 2 1
e 33 2 1
e 35 2 1
e 37 2 1
e 39 2 1
e 41 2 1
e 43 2 1
e 45 2 1
e 47 2 1
e 49 2 1
e 51 2 1
e 53 2 1
e 55 2 1
e 57 2 1
e 59 2 1
e 61 2 1
e 63 2 1
e 65 2 1
e 67 2 1
e 69 2 1
e 71 2 1
e 73 2 1
e 75 2 1
e 77 2 1
e 79 2 1
e 81 2 1
e 83 2 1
e 85 2 1
e 87 2 1
e 89 2 1
e 91 2 1
e 93 2 1
e 95 2 1
e 97 2 1
e 99 2 1
e 101 2 1
e 103 2 1
e 105 2 1
e 107 2 1
e 109 2 1
e 111 2 1
e 113 2 1
e 115 2 1
e 117 2 1
e 119 2 1
e 121 2 1
e 123 2 1
e 125 2 1
e 127 2 1
e 129 2 1
e 131 2 1
e 133 2 1
e 135 2 1
e 137 2 1
e 139 2 1
e 141 2 1
e 143 2 1
e 145 2 1
e 147 2 1
e 149 2 1
e 151 2 1
e 153 2 1
e 155 2 1
e 157 2 1
e 159 2 1
e 161 2 1
e 163 2 1
e 165 2 1
e 167 2 1
e 169 2 1
e 171 2 1
e 173 2 1
e 175 2 1
e 177 2 1
e 179 2 1
e 181 2 1
e 183 2 1
e 185 2 1
e 187 2 1
e 189 2 1
e 191 2 1
e 193 2 1
e 195 2 1
e 197 2 1
e 199 2 1
e 201 2 1
e 203 2 1
e 205 2 1
e 207 2 1
e 209 2 1
e 211 2 1
e 213 2 1
e 215 2 1
e 217 2 1
e 219 2 1
e 221 2 1
e 223 2 1
e 225 2 1
e 227 2 1
e 229 2 1
e 231 2 1
e 233 2 1
e 235 2 1
e 237 2 1
e 239 2 1
e 241 2 1
e 243 2 1
e 245 2 1
e 247 2 1
e 249 2 1
e 251 2 1
e 253 2 1
e 255 2 1
e 257 2 1
e 259 2 1
e 261 2 1
e 263 2 1
e 265 2 1
e 267 2 1
e 269 2 1
e 271 2 1
e 273 2 1
e 275 2 1
e 277 2 1
e 279 2 1
e 281 2 1
e 283 2 1
e 285 2 1
e 287 2 1
e 289 2 1
e 291 2 1
e 293 2 1
e 295 2 1
e 297 2 1
e 299 2 1
e 301 2 1
e 303 2 1
e 305 2 1
e 307 2 1
e 309 2 1
e 311 2 1
e 313 2 1
e 315 2 1
e 317 2 1
e 319 2 1
e 321 2 1
e 323 2 1
e 325 2 1
e 327 2 1
e 329 2 1
e 331 2 1
e 333 2 1
e 335 2 1
e 337 2 1
e 339 2 1
e 341 2 1
e 343 2 1
e 345 2 1
e 347 2 1
e 349 2 1
e 351 2 1
e 353 2 1
e 355 2 1
e 357 2 1
e 359 2 1
e 361 2 1
e 362 361 1
e 360 359 1
e 358 357 1
e 356 355 1
e 354 353 1
e 352 351 1
e 350 349 1
e 348 347 1
e 346 345 1
e 344 343 1
e 342 341 1
e 340 339 1
e 338 337 1
e 336 335 1
e 334 333 1
e 332 331 1
e 330 329 1
e 328 327 1
e 326 325 1
e 324 323 1
e 322 321 1
e 320 319 1
e 318 317 1
e 316 315 1
e 314 313 1
e 312 311 1
e 310 309 1
e 308 307 1
e 306 305 1
e 304 303 1
e 302 301 1
e 300 299 1
e 298 297 1
e 296 295 1
e 294 293 1
e 292 291 1
e 290 289 1
e 288 287 1
e 286 285 1
e 284 283 1
e 282 281 1
e 280 279 1
e 278 277 1
e 276 275 1
e 274 273 1
e 272 271 1
e 270 269 1
e 268 267 1
e 266 265 1
e 264 263 1
e 262 261 1
e 260 259 1
e 258 257 1
e 256 255 1
e 254 253 1
e 252 251 1
e 250 249 1
e 248 247 1
e 246 245 1
e 244 243 1
e 242 241 1
e 240 239 1
e 238 237 1
e 236 235 1
e 234 233 1
e 232 231 1
e 230 229 1
e 228 227 1
e 226 225 1
e 224 223 1
e 222 221 1
e 220 219 1
e 218 217 1
e 216 215 1
e 214 213 1
e 212 211 1
e 210 209 1
e 208 207 1
e 206 205 1
e 204 203 1
e 202 201 1
e 200 199 1
e 198 197 1
e 196 195 1
e 194 193 1
e 192 191 1
e 190 189 1
e 188 187 1
e 186 185 1
e 184 183 1
e 182 181 1
e 180 179 1
e 178 177 1
e 176 175 1
e 174 173 1
e 172 171 1
e 170 169 1
e 168 167 1
e 166 165 1
e 164 163 1
e 162 161 1
e 160 159 1
e 158 157 1
e 156 155 1
e 154 153 1
e 152 151 1
e 150 149 1
e 148 147 1
e 146 145 1
e 144 143 1
e 142 141 1
e 140 139 1
e 138 137 1
e 136 135 1
e 134 133 1
e 132 131 1
e 130 129 1
e 128 127 1
e 126 125 1
e 124 123 1
e 122 121 1
e 120 119 1
e 118 117 1
e 116 115 1
e 114 113 1
e 112 111 1
e 110 109 1
e 108 107 1
e 106 105 1
e 104 103 1
e 102 101 1
e 100 99 1
e 98 97 1
e 96 95 1
e 94 93 1
e 92 91 1
e 90 89 1
e 88 87 1
e 86 85 1
e 84 83 1
e 82 81 1
e 80 79 1
e 78 77 1
e 76 75 1
e 74 73 1
e 72 71 1
e 70 69 1
e 68 67 1
e 66 65 1
e 64 63 1
e 62 61 1
e 60 59 1
e 58 57 1
e 56 55 1
e 54 53 1
e 52 51 1
e 50 49 1
e 48 47 1
e 46 45 1
e 44 43 1
e 42 41 1
e 40 39 1
e 38 37 1
e 36 35 1
e 34 33 1
e 32 31 1
e 30 29 1
e 28 27 1
e 26 25 1
e 24 23 1
e 22 21 1
e 20 19 1
e 18 17 1
e 16 15 1
e 14 13 1
e 12 11 1
e 10 9 1
e 8 7 1
e 6 5 1
e 4 3 1
